myproject/instances/20nodes/rnd0_20.tsp
NAME : rnd0_20.tsp
TYPE : TSP
DIMENSION : 20
EDGE_WEIGHT_TYPE : EUC_2D
NODE_COORD_SECTION
0 720 839
1 449 533
2 697 75
3 491 163
4 88 538
5 277 482
6 726 590
7 507 714
8 969 856
9 248 246
10 682 20
11 656 436
12 457 217
13 851 483
14 560 993
15 355 734
16 748 910
17 518 542
18 446 472
19 799 5
