myproject/instances/20nodes/rnd0_20.opt.tour
NAME : rnd0_20.tsp.tsp.opt.tour
TYPE : TOUR
DIMENSION : 20
TOUR_SECTION
1
16
9
20
13
8
2
3
14
7
4
6
17
11
5
12
10
19
18
15
-1